(declare-const a Real)
(declare-const b Real)
(declare-const c Real)
(assert (= (* a b c) 1))
(assert (> a 0))
(assert (> b 0))
(assert (> c 0))
(assert (not (<= (+ (* -14371543040 (pow b 4)) (* -10999322624 (pow a 4)) (* -28991029248 (pow a (pow 3 -1)) (pow b (/ 11 3))) (* -14495514624 (pow a (/ 10 3)) (pow b (/ 2 3))) (* 16241303552 b (pow a 3)) (* a (pow (+ (* 639332352 a) (* 51976773632 (pow b 3))) -1) (pow (+ (* 51976773632 (pow b 3)) (* 639332352 a b)) 2))) 0)))
(check-sat)
(get-model)
(exit)